problems/VanDerWaerdenNumbers/VanDerWaerden-models/noch/O2/lingeling/model_4-k3l4n37-solution000001.eprime-solution
language ESSENCE' 1.0

letting p_PartitionOccurrence_FirstIndex be [1, 3, 6; int(1..3)]
letting p_PartitionOccurrence_NumParts be 3
letting p_PartitionOccurrence_PartSizes be [11, 15, 11; int(1..3)]
letting p_PartitionOccurrence_WhichPart be
        [1, 1, 2, 2, 2, 3, 3, 1, 2, 1, 2, 3, 3, 1, 3, 2, 2, 2, 1, 3, 3, 2, 3, 2, 1, 1, 2, 3, 1, 3, 1, 3, 2, 2, 2, 1,
         2; int(1..37)]
