problems/VanDerWaerdenNumbers/VanDerWaerden-models/noch/O2/lingeling/model_4-k3l4n37-solution000001.solution
language Essence 1.3

letting p be
        partition({1, 2, 8, 10, 14, 19, 25, 26, 29, 31, 36}, {3, 4, 5, 9, 11, 16, 17, 18, 22, 24, 27, 33, 34, 35, 37},
                  {6, 7, 12, 13, 15, 20, 21, 23, 28, 30, 32})
